
Log started (V12.10.0.0) Fri Apr  2 11:15:51 2021

Warning, line 531: Name 's2' does not exist.
Warning, line 532: Name 's269' does not exist.
Warning, line 534: Name 's30' does not exist.
Warning, line 535: Name 's229' does not exist.
Warning, line 536: Name 's288' does not exist.
Warning, line 537: Name 's161' does not exist.
Warning, line 538: Name 's242' does not exist.
Warning, line 557: Name 's270' does not exist.

Problem 'asset.lp' read.
Read time = 0.00 sec. (0.03 ticks)
New value for default parallel thread count: 1
New value for time limit in seconds: 400
Version identifier: 12.10.0.0 | 2019-11-26 | 843d4de
CPXPARAM_Threads                                 1
CPXPARAM_TimeLimit                               400
Found incumbent of value 0.000000 after 0.00 sec. (0.01 ticks)
Tried aggregator 3 times.
MIP Presolve eliminated 170 rows and 132 columns.
MIP Presolve modified 289 coefficients.
Aggregator did 97 substitutions.
Reduced MIP has 103 rows, 119 columns, and 416 nonzeros.
Reduced MIP has 108 binaries, 5 generals, 0 SOSs, and 0 indicators.
Presolve time = 0.00 sec. (0.88 ticks)
Probing fixed 26 vars, tightened 0 bounds.
Probing time = 0.00 sec. (0.18 ticks)
Cover probing fixed 0 vars, tightened 13 bounds.
Tried aggregator 1 time.
MIP Presolve eliminated 79 rows and 50 columns.
Reduced MIP has 24 rows, 67 columns, and 139 nonzeros.
Reduced MIP has 65 binaries, 2 generals, 0 SOSs, and 0 indicators.
Presolve time = 0.00 sec. (0.21 ticks)
Probing time = 0.00 sec. (0.05 ticks)
Tried aggregator 1 time.
Detecting symmetries...
Reduced MIP has 24 rows, 67 columns, and 139 nonzeros.
Reduced MIP has 65 binaries, 2 generals, 0 SOSs, and 0 indicators.
Presolve time = 0.00 sec. (0.12 ticks)
Probing time = 0.00 sec. (0.05 ticks)
Clique table members: 41.
MIP emphasis: balance optimality and feasibility.
MIP search method: dynamic search.
Parallel mode: none, using 1 thread.
Root relaxation solution time = 0.00 sec. (0.11 ticks)

        Nodes                                         Cuts/
   Node  Left     Objective  IInf  Best Integer    Best Bound    ItCnt     Gap

*     0+    0                            0.0000       62.0000              --- 
      0     0       33.0000     3        0.0000       33.0000       27     --- 
*     0+    0                           32.0000       33.0000             3.12%
      0     0        cutoff             32.0000       33.0000       27    3.12%
Elapsed time = 0.01 sec. (1.90 ticks, tree = 0.01 MB, solutions = 1)

Root node processing (before b&c):
  Real time             =    0.01 sec. (1.91 ticks)
Sequential b&c:
  Real time             =    0.00 sec. (0.00 ticks)
                          ------------
Total (root+branch&cut) =    0.01 sec. (1.91 ticks)

Solution pool: 2 solutions saved.

MIP - Integer optimal solution:  Objective =  3.2000000000e+01
Solution time =    0.01 sec.  Iterations = 27  Nodes = 0
Deterministic time = 1.91 ticks  (312.86 ticks/sec)


Incumbent solution
Variable Name           Solution Value
F                            32.000000
y67                           1.000000
y287                          1.000000
y35                           1.000000
y265                          1.000000
y125                          1.000000
y17                           1.000000
x205x125x1                    1.000000
x215x287x2                    1.000000
x16x35x2                      1.000000
x16x265x2                     1.000000
x48x17x2                      1.000000
x88x287x2                     1.000000
x205x17x3                     1.000000
x64x265x3                     1.000000
x251x67x3                     1.000000
x226x35x3                     1.000000
x264x67x3                     1.000000
x264x125x3                    1.000000
x67x0x3                       2.000000
x287x0x2                      2.000000
x35x0x2                       1.000000
x35x0x3                       1.000000
x265x0x2                      1.000000
x265x0x3                      1.000000
x125x0x1                      1.000000
x125x0x3                      1.000000
x17x0x2                       1.000000
x17x0x3                       1.000000
s215                          7.471463
s60                           9.154422
s287                          9.260000
z215z287z2                    1.000000
s158                          9.270000
s35                           9.290000
s285                          9.310000
s265                          9.350000
s17                           9.490000
s16                           7.713748
z16z35z2                      1.000000
z16z265z2                     1.000000
s48                           8.134732
z48z17z2                      1.000000
s205                          8.128464
s125                          9.370000
z205z125z1                    1.000000
s117                          9.390000
z205z117z1                    1.000000
s298                          9.400000
z205z17z3                     1.000000
s64                           7.947179
s209                          8.200000
s67                           9.179371
s154                          8.230000
s225                          9.310000
z64z265z3                     1.000000
s88                           7.130660
z88z287z2                     1.000000
s251                          7.410000
z251z67z3                     1.000000
s226                          7.601510
z226z35z3                     1.000000
s264                          7.669430
z264z67z3                     1.000000
z264z225z3                    1.000000
z264z125z3                    1.000000
s196                          8.240000
s78                           8.250000
s268                          8.280000
s140                          8.210000
s116                          9.230000
All other variables in the range 1-349 are 0.
